\ENCODING=ISO-8859-1
\Problem name: mockup5

Minimize
 obj1: x(1,2) + x(1,3) + x(1,4) + x(1,5) + x(2,3) + x(2,4) + x(2,5) + x(3,4)
       + x(3,5) + x(4,5)
Subject To
 degree(1): x(1,2) + x(1,3) + x(1,4) + x(1,5)  = 2
 degree(2): x(1,2) + x(2,3) + x(2,4) + x(2,5)  = 2
 degree(3): x(1,3) + x(2,3) + x(3,4) + x(3,5)  = 2
 degree(4): x(1,4) + x(2,4) + x(3,4) + x(4,5)  = 2
 degree(5): x(1,5) + x(2,5) + x(3,5) + x(4,5)  = 2
Bounds
 0 <= x(1,2) <= 1
 0 <= x(1,3) <= 1
 0 <= x(1,4) <= 1
 0 <= x(1,5) <= 1
 0 <= x(2,3) <= 1
 0 <= x(2,4) <= 1
 0 <= x(2,5) <= 1
 0 <= x(3,4) <= 1
 0 <= x(3,5) <= 1
 0 <= x(4,5) <= 1
Binaries
 x(1,2)  x(1,3)  x(1,4)  x(1,5)  x(2,3)  x(2,4)  x(2,5)  x(3,4)  x(3,5) 
 x(4,5) 
End
